p cnf 34 92
a 4 14 0
e 1 2 3 5 6 7 8 9 10 11 12 13 15 16 17 18 19 20 21 22 23 24 25 26 27 28 29 30 31 32 33 34 0
-2 -3 0
2 -3 0
4 -1 0
4 3 0
1 -3 -4 0
-6 4 0
-6 5 0
-4 -5 6 0
-7 6 0
-7 -1 0
-6 1 7 0
7 -8 0
-7 -8 0
-10 -9 0
-10 -9 0
9 10 0
-12 -3 0
-12 11 0
3 -11 12 0
10 -12 -13 0
-10 12 -13 0
10 12 13 0
-10 -12 13 0
-8 13 -14 0
8 -13 -14 0
-8 -13 14 0
8 13 14 0
-15 -2 -16 0
15 2 -16 0
-15 2 16 0
15 -2 16 0
17 -16 0
17 7 0
16 -7 -17 0
-17 11 -18 0
17 -11 -18 0
-17 -11 18 0
17 11 18 0
14 18 -19 0
-14 -18 -19 0
14 -18 19 0
-14 18 19 0
4 16 -20 0
-4 -16 -20 0
4 -16 20 0
-4 16 20 0
11 21 -22 0
-11 -21 -22 0
11 -21 22 0
-11 21 22 0
-23 -22 0
-23 -22 0
22 23 0
-24 20 0
-24 23 0
-20 -23 24 0
25 21 0
25 9 0
-21 -9 -25 0
26 -24 0
26 25 0
24 -25 -26 0
28 2 0
28 -3 0
-2 3 -28 0
29 28 0
29 -9 0
-28 9 -29 0
-30 29 0
-30 -29 0
-31 30 0
-31 16 0
-30 -16 31 0
-32 -27 0
-32 31 0
27 -31 32 0
26 32 -33 0
-26 -32 -33 0
26 -32 33 0
-26 32 33 0
-34 19 0
-34 33 0
-19 -33 34 0
-14 -22 6 -16 15 0
17 -16 -14 -15 30 13 8 0
34 -16 -13 -1 33 19 30 0
32 -1 2 -19 10 -6 0
13 -5 6 24 -3 11 26 0
17 7 33 0
6 3 -32 -12 -34 0
-16 -6 32 -30 0
34 0
